(set-logic ALL)
(declare-fun var0 () String)
(assert (str.in_re var0 (re.++ (re.* (re.union (str.to_re "00") (str.to_re "11"))) (re.++ (re.+ (re.* (str.to_re "22"))) (re.++ (re.* (re.+ (str.to_re "333"))) (re.++ (re.* (re.* (str.to_re "44"))) (re.++ (re.+ (re.union (str.to_re "555") (str.to_re "6"))) (re.++ (re.* (re.union (str.to_re "77") (str.to_re "8"))) (re.++ (re.union (re.+ (str.to_re "999")) (re.+ (str.to_re "aa"))) (re.++ (re.+ (re.* (str.to_re "b"))) (re.++ (re.* (re.* (str.to_re "c"))) (re.++ (re.union (re.union (str.to_re "d") (str.to_re "ee")) (re.union (str.to_re "fff") (str.to_re "gg"))) (re.++ (re.union (re.* (str.to_re "hh")) (re.* (str.to_re "ii"))) (re.++ (re.+ (re.union (str.to_re "jj") (str.to_re "kkk"))) (re.++ (re.union (re.+ (str.to_re "l")) (re.+ (str.to_re "m"))) (re.++ (re.union (re.+ (str.to_re "n")) (re.+ (str.to_re "ooo"))) (re.++ (re.+ (re.+ (str.to_re "ppp"))) (re.++ (re.* (re.* (str.to_re "qqq"))) (re.++ (re.union (re.union (str.to_re "rr") (str.to_re "ss")) (re.union (str.to_re "tt") (str.to_re "u"))) (re.++ (re.union (re.+ (str.to_re "vv")) (re.+ (str.to_re "www"))) (re.++ (re.* (re.* (str.to_re "x"))) (re.++ (re.union (re.+ (str.to_re "yy")) (re.+ (str.to_re "zzz"))) (re.++ (re.* (re.* (str.to_re "AAA"))) (re.++ (re.+ (re.+ (str.to_re "BBB"))) (re.++ (re.+ (re.* (str.to_re "CCC"))) (re.++ (re.+ (re.+ (str.to_re "D"))) (re.++ (re.* (re.* (str.to_re "EE"))) (re.++ (re.union (re.* (str.to_re "FFF")) (re.* (str.to_re "GG"))) (re.++ (re.union (re.+ (str.to_re "H")) (re.+ (str.to_re "II"))) (re.++ (re.+ (re.* (str.to_re "J"))) (re.++ (re.union (re.* (str.to_re "KK")) (re.* (str.to_re "LLL"))) (re.++ (re.+ (re.union (str.to_re "MM") (str.to_re "NN"))) (re.++ (re.* (re.+ (str.to_re "OOO"))) (re.++ (re.union (re.+ (str.to_re "P")) (re.+ (str.to_re "Q"))) (re.++ (re.* (re.union (str.to_re "R") (str.to_re "S"))) (re.++ (re.* (re.union (str.to_re "TTT") (str.to_re "UUU"))) (re.* (re.union (str.to_re "VV") (str.to_re "WW")))))))))))))))))))))))))))))))))))))))
(check-sat)